
;this file is automatically generated: Mon Oct 04 22:33:16 IST 2021

;declarations generated

(declare-fun oclExcludes ( Int Int) Bool)
(declare-fun Cardinality ( Int) Int)
(declare-fun obj_2cdd6e0a_e804_428a_a82c_1b158cc5114f ( Int) Int)
(declare-fun type_09da0f11_fce6_4b0c_8b38_55f5ef301f40_Class9 ( Int) Bool)
(declare-fun type_09da0f11_fce6_4b0c_8b38_55f5ef301f40_Class8 ( Int) Bool)
(declare-fun type_09da0f11_fce6_4b0c_8b38_55f5ef301f40_Class7 ( Int) Bool)
(declare-fun type_09da0f11_fce6_4b0c_8b38_55f5ef301f40_Class6 ( Int) Bool)
(declare-fun type_09da0f11_fce6_4b0c_8b38_55f5ef301f40_Class5 ( Int) Bool)
(declare-fun type_09da0f11_fce6_4b0c_8b38_55f5ef301f40_Class4 ( Int) Bool)
(declare-fun type_09da0f11_fce6_4b0c_8b38_55f5ef301f40_Class3 ( Int) Bool)
(declare-fun type_09da0f11_fce6_4b0c_8b38_55f5ef301f40_Class2 ( Int) Bool)
(declare-fun type_09da0f11_fce6_4b0c_8b38_55f5ef301f40_Class1 ( Int) Bool)
(declare-fun type_09da0f11_fce6_4b0c_8b38_55f5ef301f40_Class0 ( Int) Bool)
(declare-fun type_09da0f11_fce6_4b0c_8b38_55f5ef301f40_Class35 ( Int) Bool)
(declare-fun type_09da0f11_fce6_4b0c_8b38_55f5ef301f40_Class36 ( Int) Bool)
(declare-fun type_09da0f11_fce6_4b0c_8b38_55f5ef301f40_Class33 ( Int) Bool)
(declare-fun type_09da0f11_fce6_4b0c_8b38_55f5ef301f40_Class34 ( Int) Bool)
(declare-fun type_09da0f11_fce6_4b0c_8b38_55f5ef301f40_Class31 ( Int) Bool)
(declare-fun type_09da0f11_fce6_4b0c_8b38_55f5ef301f40_Class32 ( Int) Bool)
(declare-fun type_09da0f11_fce6_4b0c_8b38_55f5ef301f40_Class30 ( Int) Bool)
(declare-fun type_09da0f11_fce6_4b0c_8b38_55f5ef301f40_Class28 ( Int) Bool)
(declare-fun type_09da0f11_fce6_4b0c_8b38_55f5ef301f40_Class29 ( Int) Bool)
(declare-fun type_09da0f11_fce6_4b0c_8b38_55f5ef301f40_Class26 ( Int) Bool)
(declare-fun type_09da0f11_fce6_4b0c_8b38_55f5ef301f40_Class27 ( Int) Bool)
(declare-fun type_09da0f11_fce6_4b0c_8b38_55f5ef301f40_Class24 ( Int) Bool)
(declare-fun type_09da0f11_fce6_4b0c_8b38_55f5ef301f40_Class25 ( Int) Bool)
(declare-fun type_09da0f11_fce6_4b0c_8b38_55f5ef301f40_Class22 ( Int) Bool)
(declare-fun type_09da0f11_fce6_4b0c_8b38_55f5ef301f40_Class23 ( Int) Bool)
(declare-fun type_09da0f11_fce6_4b0c_8b38_55f5ef301f40_Class20 ( Int) Bool)
(declare-fun type_09da0f11_fce6_4b0c_8b38_55f5ef301f40_Class21 ( Int) Bool)
(declare-fun type_09da0f11_fce6_4b0c_8b38_55f5ef301f40_Class19 ( Int) Bool)
(declare-fun type_09da0f11_fce6_4b0c_8b38_55f5ef301f40_Class17 ( Int) Bool)
(declare-fun type_09da0f11_fce6_4b0c_8b38_55f5ef301f40_Class18 ( Int) Bool)
(declare-fun type_09da0f11_fce6_4b0c_8b38_55f5ef301f40_Class15 ( Int) Bool)
(declare-fun type_09da0f11_fce6_4b0c_8b38_55f5ef301f40_Class16 ( Int) Bool)
(declare-fun type_09da0f11_fce6_4b0c_8b38_55f5ef301f40_Class13 ( Int) Bool)
(declare-fun type_09da0f11_fce6_4b0c_8b38_55f5ef301f40_Class14 ( Int) Bool)
(declare-fun type_09da0f11_fce6_4b0c_8b38_55f5ef301f40_Class11 ( Int) Bool)
(declare-fun type_09da0f11_fce6_4b0c_8b38_55f5ef301f40_Class12 ( Int) Bool)
(declare-fun type_09da0f11_fce6_4b0c_8b38_55f5ef301f40_Class10 ( Int) Bool)
(declare-fun oclSelect ( Int Bool) Int)
(declare-fun class9_Class9IntAttr4 ( Int) Int)
(declare-fun class9_Class9IntAttr3 ( Int) Int)
(declare-fun type_09da0f11_fce6_4b0c_8b38_55f5ef301f40_Class50 ( Int) Bool)
(declare-fun type_09da0f11_fce6_4b0c_8b38_55f5ef301f40_Class55 ( Int) Bool)
(declare-fun type_09da0f11_fce6_4b0c_8b38_55f5ef301f40_Class53 ( Int) Bool)
(declare-fun type_09da0f11_fce6_4b0c_8b38_55f5ef301f40_Class54 ( Int) Bool)
(declare-fun type_09da0f11_fce6_4b0c_8b38_55f5ef301f40_Class51 ( Int) Bool)
(declare-fun type_09da0f11_fce6_4b0c_8b38_55f5ef301f40_Class52 ( Int) Bool)
(declare-fun type_09da0f11_fce6_4b0c_8b38_55f5ef301f40_Class48 ( Int) Bool)
(declare-fun type_09da0f11_fce6_4b0c_8b38_55f5ef301f40_Class49 ( Int) Bool)
(declare-fun type_09da0f11_fce6_4b0c_8b38_55f5ef301f40_Class46 ( Int) Bool)
(declare-fun type_09da0f11_fce6_4b0c_8b38_55f5ef301f40_Class47 ( Int) Bool)
(declare-fun type_09da0f11_fce6_4b0c_8b38_55f5ef301f40_Class44 ( Int) Bool)
(declare-fun type_09da0f11_fce6_4b0c_8b38_55f5ef301f40_Class45 ( Int) Bool)
(declare-fun type_09da0f11_fce6_4b0c_8b38_55f5ef301f40_Class42 ( Int) Bool)
(declare-fun type_09da0f11_fce6_4b0c_8b38_55f5ef301f40_Class43 ( Int) Bool)
(declare-fun type_09da0f11_fce6_4b0c_8b38_55f5ef301f40_Class40 ( Int) Bool)
(declare-fun type_09da0f11_fce6_4b0c_8b38_55f5ef301f40_Class41 ( Int) Bool)
(declare-fun type_09da0f11_fce6_4b0c_8b38_55f5ef301f40_Class39 ( Int) Bool)
(declare-fun type_09da0f11_fce6_4b0c_8b38_55f5ef301f40_Class37 ( Int) Bool)
(declare-fun type_09da0f11_fce6_4b0c_8b38_55f5ef301f40_Class38 ( Int) Bool)
(declare-fun Enum0 ( Int) Int)
(declare-fun Enum1 ( Int) Int)
(declare-fun Enum2 ( Int) Int)
(declare-fun container_ ( Int) Int)
(declare-fun oclIncludes ( Int Int) Bool)
(declare-fun ObjAt ( Int Int) Int)

;formula(s) generated
(assert (! (forall ((v Int)) (=> ( type_09da0f11_fce6_4b0c_8b38_55f5ef301f40_Class9 v )  (or (> ( class9_Class9IntAttr3 ( obj_2cdd6e0a_e804_428a_a82c_1b158cc5114f v )  )  15) (and (forall ((v Int)) (=> ( type_09da0f11_fce6_4b0c_8b38_55f5ef301f40_Class9 v )  (<= ( class9_Class9IntAttr4 ( obj_2cdd6e0a_e804_428a_a82c_1b158cc5114f v )  )  14))) (forall ((v Int)) (=> ( type_09da0f11_fce6_4b0c_8b38_55f5ef301f40_Class9 v )  (<= ( class9_Class9IntAttr4 ( obj_2cdd6e0a_e804_428a_a82c_1b158cc5114f v )  )  14))))))):named l0))
(assert (! (forall ((c9_2 Int)(c9_1 Int)) (=> (and ( type_09da0f11_fce6_4b0c_8b38_55f5ef301f40_Class9 c9_1 )  ( type_09da0f11_fce6_4b0c_8b38_55f5ef301f40_Class9 c9_2 ) ) (> ( class9_Class9IntAttr4 ( obj_2cdd6e0a_e804_428a_a82c_1b158cc5114f c9_1 )  )  ( class9_Class9IntAttr3 ( obj_2cdd6e0a_e804_428a_a82c_1b158cc5114f c9_2 )  ) ))):named l1))
(assert (! (forall ((c9_2 Int)(c9_1 Int)) (=> (and ( type_09da0f11_fce6_4b0c_8b38_55f5ef301f40_Class9 c9_1 )  ( type_09da0f11_fce6_4b0c_8b38_55f5ef301f40_Class9 c9_2 ) ) (< ( class9_Class9IntAttr4 ( obj_2cdd6e0a_e804_428a_a82c_1b158cc5114f c9_1 )  )  ( class9_Class9IntAttr3 ( obj_2cdd6e0a_e804_428a_a82c_1b158cc5114f c9_2 )  ) ))):named l2))
(assert (! (forall ((c1 Int)) (=> ( type_09da0f11_fce6_4b0c_8b38_55f5ef301f40_Class9 c1 )  (> ( class9_Class9IntAttr3 ( obj_2cdd6e0a_e804_428a_a82c_1b158cc5114f c1 )  )  14))):named l3))
(assert (! (exists ((o Int)) ( type_09da0f11_fce6_4b0c_8b38_55f5ef301f40_Class0 ( obj_2cdd6e0a_e804_428a_a82c_1b158cc5114f o )  ) ):named c0))
(assert (! (exists ((o Int)) (and (and (and (and (and ( type_09da0f11_fce6_4b0c_8b38_55f5ef301f40_Class1 ( obj_2cdd6e0a_e804_428a_a82c_1b158cc5114f o )  )  ( type_09da0f11_fce6_4b0c_8b38_55f5ef301f40_Class45 ( obj_2cdd6e0a_e804_428a_a82c_1b158cc5114f o )  ) ) ( type_09da0f11_fce6_4b0c_8b38_55f5ef301f40_Class12 ( obj_2cdd6e0a_e804_428a_a82c_1b158cc5114f o )  ) ) ( type_09da0f11_fce6_4b0c_8b38_55f5ef301f40_Class33 ( obj_2cdd6e0a_e804_428a_a82c_1b158cc5114f o )  ) ) ( type_09da0f11_fce6_4b0c_8b38_55f5ef301f40_Class22 ( obj_2cdd6e0a_e804_428a_a82c_1b158cc5114f o )  ) ) ( type_09da0f11_fce6_4b0c_8b38_55f5ef301f40_Class39 ( obj_2cdd6e0a_e804_428a_a82c_1b158cc5114f o )  ) )):named c1))
(assert (! (exists ((o Int)) (and (and (and (and (and (and (and (and (and ( type_09da0f11_fce6_4b0c_8b38_55f5ef301f40_Class10 ( obj_2cdd6e0a_e804_428a_a82c_1b158cc5114f o )  )  ( type_09da0f11_fce6_4b0c_8b38_55f5ef301f40_Class45 ( obj_2cdd6e0a_e804_428a_a82c_1b158cc5114f o )  ) ) ( type_09da0f11_fce6_4b0c_8b38_55f5ef301f40_Class12 ( obj_2cdd6e0a_e804_428a_a82c_1b158cc5114f o )  ) ) ( type_09da0f11_fce6_4b0c_8b38_55f5ef301f40_Class55 ( obj_2cdd6e0a_e804_428a_a82c_1b158cc5114f o )  ) ) ( type_09da0f11_fce6_4b0c_8b38_55f5ef301f40_Class33 ( obj_2cdd6e0a_e804_428a_a82c_1b158cc5114f o )  ) ) ( type_09da0f11_fce6_4b0c_8b38_55f5ef301f40_Class22 ( obj_2cdd6e0a_e804_428a_a82c_1b158cc5114f o )  ) ) ( type_09da0f11_fce6_4b0c_8b38_55f5ef301f40_Class29 ( obj_2cdd6e0a_e804_428a_a82c_1b158cc5114f o )  ) ) ( type_09da0f11_fce6_4b0c_8b38_55f5ef301f40_Class39 ( obj_2cdd6e0a_e804_428a_a82c_1b158cc5114f o )  ) ) ( type_09da0f11_fce6_4b0c_8b38_55f5ef301f40_Class50 ( obj_2cdd6e0a_e804_428a_a82c_1b158cc5114f o )  ) ) ( type_09da0f11_fce6_4b0c_8b38_55f5ef301f40_Class41 ( obj_2cdd6e0a_e804_428a_a82c_1b158cc5114f o )  ) )):named c2))
(assert (! (exists ((o Int)) ( type_09da0f11_fce6_4b0c_8b38_55f5ef301f40_Class11 ( obj_2cdd6e0a_e804_428a_a82c_1b158cc5114f o )  ) ):named c3))
(assert (! (exists ((o Int)) (and (and (and ( type_09da0f11_fce6_4b0c_8b38_55f5ef301f40_Class12 ( obj_2cdd6e0a_e804_428a_a82c_1b158cc5114f o )  )  ( type_09da0f11_fce6_4b0c_8b38_55f5ef301f40_Class33 ( obj_2cdd6e0a_e804_428a_a82c_1b158cc5114f o )  ) ) ( type_09da0f11_fce6_4b0c_8b38_55f5ef301f40_Class22 ( obj_2cdd6e0a_e804_428a_a82c_1b158cc5114f o )  ) ) ( type_09da0f11_fce6_4b0c_8b38_55f5ef301f40_Class39 ( obj_2cdd6e0a_e804_428a_a82c_1b158cc5114f o )  ) )):named c4))
(assert (! (exists ((o Int)) (and (and (and (and (and (and (and (and (and ( type_09da0f11_fce6_4b0c_8b38_55f5ef301f40_Class13 ( obj_2cdd6e0a_e804_428a_a82c_1b158cc5114f o )  )  ( type_09da0f11_fce6_4b0c_8b38_55f5ef301f40_Class45 ( obj_2cdd6e0a_e804_428a_a82c_1b158cc5114f o )  ) ) ( type_09da0f11_fce6_4b0c_8b38_55f5ef301f40_Class12 ( obj_2cdd6e0a_e804_428a_a82c_1b158cc5114f o )  ) ) ( type_09da0f11_fce6_4b0c_8b38_55f5ef301f40_Class55 ( obj_2cdd6e0a_e804_428a_a82c_1b158cc5114f o )  ) ) ( type_09da0f11_fce6_4b0c_8b38_55f5ef301f40_Class33 ( obj_2cdd6e0a_e804_428a_a82c_1b158cc5114f o )  ) ) ( type_09da0f11_fce6_4b0c_8b38_55f5ef301f40_Class22 ( obj_2cdd6e0a_e804_428a_a82c_1b158cc5114f o )  ) ) ( type_09da0f11_fce6_4b0c_8b38_55f5ef301f40_Class29 ( obj_2cdd6e0a_e804_428a_a82c_1b158cc5114f o )  ) ) ( type_09da0f11_fce6_4b0c_8b38_55f5ef301f40_Class39 ( obj_2cdd6e0a_e804_428a_a82c_1b158cc5114f o )  ) ) ( type_09da0f11_fce6_4b0c_8b38_55f5ef301f40_Class50 ( obj_2cdd6e0a_e804_428a_a82c_1b158cc5114f o )  ) ) ( type_09da0f11_fce6_4b0c_8b38_55f5ef301f40_Class41 ( obj_2cdd6e0a_e804_428a_a82c_1b158cc5114f o )  ) )):named c5))
(assert (! (exists ((o Int)) (and (and (and (and (and (and (and (and (and ( type_09da0f11_fce6_4b0c_8b38_55f5ef301f40_Class14 ( obj_2cdd6e0a_e804_428a_a82c_1b158cc5114f o )  )  ( type_09da0f11_fce6_4b0c_8b38_55f5ef301f40_Class45 ( obj_2cdd6e0a_e804_428a_a82c_1b158cc5114f o )  ) ) ( type_09da0f11_fce6_4b0c_8b38_55f5ef301f40_Class12 ( obj_2cdd6e0a_e804_428a_a82c_1b158cc5114f o )  ) ) ( type_09da0f11_fce6_4b0c_8b38_55f5ef301f40_Class55 ( obj_2cdd6e0a_e804_428a_a82c_1b158cc5114f o )  ) ) ( type_09da0f11_fce6_4b0c_8b38_55f5ef301f40_Class33 ( obj_2cdd6e0a_e804_428a_a82c_1b158cc5114f o )  ) ) ( type_09da0f11_fce6_4b0c_8b38_55f5ef301f40_Class22 ( obj_2cdd6e0a_e804_428a_a82c_1b158cc5114f o )  ) ) ( type_09da0f11_fce6_4b0c_8b38_55f5ef301f40_Class29 ( obj_2cdd6e0a_e804_428a_a82c_1b158cc5114f o )  ) ) ( type_09da0f11_fce6_4b0c_8b38_55f5ef301f40_Class39 ( obj_2cdd6e0a_e804_428a_a82c_1b158cc5114f o )  ) ) ( type_09da0f11_fce6_4b0c_8b38_55f5ef301f40_Class50 ( obj_2cdd6e0a_e804_428a_a82c_1b158cc5114f o )  ) ) ( type_09da0f11_fce6_4b0c_8b38_55f5ef301f40_Class41 ( obj_2cdd6e0a_e804_428a_a82c_1b158cc5114f o )  ) )):named c6))
(assert (! (exists ((o Int)) ( type_09da0f11_fce6_4b0c_8b38_55f5ef301f40_Class15 ( obj_2cdd6e0a_e804_428a_a82c_1b158cc5114f o )  ) ):named c7))
(assert (! (exists ((o Int)) (and (and (and (and (and ( type_09da0f11_fce6_4b0c_8b38_55f5ef301f40_Class16 ( obj_2cdd6e0a_e804_428a_a82c_1b158cc5114f o )  )  ( type_09da0f11_fce6_4b0c_8b38_55f5ef301f40_Class45 ( obj_2cdd6e0a_e804_428a_a82c_1b158cc5114f o )  ) ) ( type_09da0f11_fce6_4b0c_8b38_55f5ef301f40_Class12 ( obj_2cdd6e0a_e804_428a_a82c_1b158cc5114f o )  ) ) ( type_09da0f11_fce6_4b0c_8b38_55f5ef301f40_Class33 ( obj_2cdd6e0a_e804_428a_a82c_1b158cc5114f o )  ) ) ( type_09da0f11_fce6_4b0c_8b38_55f5ef301f40_Class22 ( obj_2cdd6e0a_e804_428a_a82c_1b158cc5114f o )  ) ) ( type_09da0f11_fce6_4b0c_8b38_55f5ef301f40_Class39 ( obj_2cdd6e0a_e804_428a_a82c_1b158cc5114f o )  ) )):named c8))
(assert (! (exists ((o Int)) ( type_09da0f11_fce6_4b0c_8b38_55f5ef301f40_Class17 ( obj_2cdd6e0a_e804_428a_a82c_1b158cc5114f o )  ) ):named c9))
(assert (! (exists ((o Int)) (and (and (and ( type_09da0f11_fce6_4b0c_8b38_55f5ef301f40_Class18 ( obj_2cdd6e0a_e804_428a_a82c_1b158cc5114f o )  )  ( type_09da0f11_fce6_4b0c_8b38_55f5ef301f40_Class25 ( obj_2cdd6e0a_e804_428a_a82c_1b158cc5114f o )  ) ) ( type_09da0f11_fce6_4b0c_8b38_55f5ef301f40_Class24 ( obj_2cdd6e0a_e804_428a_a82c_1b158cc5114f o )  ) ) ( type_09da0f11_fce6_4b0c_8b38_55f5ef301f40_Class39 ( obj_2cdd6e0a_e804_428a_a82c_1b158cc5114f o )  ) )):named c10))
(assert (! (exists ((o Int)) (and (and (and (and (and (and (and (and (and ( type_09da0f11_fce6_4b0c_8b38_55f5ef301f40_Class19 ( obj_2cdd6e0a_e804_428a_a82c_1b158cc5114f o )  )  ( type_09da0f11_fce6_4b0c_8b38_55f5ef301f40_Class45 ( obj_2cdd6e0a_e804_428a_a82c_1b158cc5114f o )  ) ) ( type_09da0f11_fce6_4b0c_8b38_55f5ef301f40_Class12 ( obj_2cdd6e0a_e804_428a_a82c_1b158cc5114f o )  ) ) ( type_09da0f11_fce6_4b0c_8b38_55f5ef301f40_Class55 ( obj_2cdd6e0a_e804_428a_a82c_1b158cc5114f o )  ) ) ( type_09da0f11_fce6_4b0c_8b38_55f5ef301f40_Class33 ( obj_2cdd6e0a_e804_428a_a82c_1b158cc5114f o )  ) ) ( type_09da0f11_fce6_4b0c_8b38_55f5ef301f40_Class22 ( obj_2cdd6e0a_e804_428a_a82c_1b158cc5114f o )  ) ) ( type_09da0f11_fce6_4b0c_8b38_55f5ef301f40_Class29 ( obj_2cdd6e0a_e804_428a_a82c_1b158cc5114f o )  ) ) ( type_09da0f11_fce6_4b0c_8b38_55f5ef301f40_Class39 ( obj_2cdd6e0a_e804_428a_a82c_1b158cc5114f o )  ) ) ( type_09da0f11_fce6_4b0c_8b38_55f5ef301f40_Class50 ( obj_2cdd6e0a_e804_428a_a82c_1b158cc5114f o )  ) ) ( type_09da0f11_fce6_4b0c_8b38_55f5ef301f40_Class41 ( obj_2cdd6e0a_e804_428a_a82c_1b158cc5114f o )  ) )):named c11))
(assert (! (exists ((o Int)) ( type_09da0f11_fce6_4b0c_8b38_55f5ef301f40_Class2 ( obj_2cdd6e0a_e804_428a_a82c_1b158cc5114f o )  ) ):named c12))
(assert (! (exists ((o Int)) ( type_09da0f11_fce6_4b0c_8b38_55f5ef301f40_Class20 ( obj_2cdd6e0a_e804_428a_a82c_1b158cc5114f o )  ) ):named c13))
(assert (! (exists ((o Int)) (and (and (and (and (and (and (and (and (and ( type_09da0f11_fce6_4b0c_8b38_55f5ef301f40_Class21 ( obj_2cdd6e0a_e804_428a_a82c_1b158cc5114f o )  )  ( type_09da0f11_fce6_4b0c_8b38_55f5ef301f40_Class45 ( obj_2cdd6e0a_e804_428a_a82c_1b158cc5114f o )  ) ) ( type_09da0f11_fce6_4b0c_8b38_55f5ef301f40_Class12 ( obj_2cdd6e0a_e804_428a_a82c_1b158cc5114f o )  ) ) ( type_09da0f11_fce6_4b0c_8b38_55f5ef301f40_Class33 ( obj_2cdd6e0a_e804_428a_a82c_1b158cc5114f o )  ) ) ( type_09da0f11_fce6_4b0c_8b38_55f5ef301f40_Class22 ( obj_2cdd6e0a_e804_428a_a82c_1b158cc5114f o )  ) ) ( type_09da0f11_fce6_4b0c_8b38_55f5ef301f40_Class16 ( obj_2cdd6e0a_e804_428a_a82c_1b158cc5114f o )  ) ) ( type_09da0f11_fce6_4b0c_8b38_55f5ef301f40_Class29 ( obj_2cdd6e0a_e804_428a_a82c_1b158cc5114f o )  ) ) ( type_09da0f11_fce6_4b0c_8b38_55f5ef301f40_Class39 ( obj_2cdd6e0a_e804_428a_a82c_1b158cc5114f o )  ) ) ( type_09da0f11_fce6_4b0c_8b38_55f5ef301f40_Class41 ( obj_2cdd6e0a_e804_428a_a82c_1b158cc5114f o )  ) ) ( type_09da0f11_fce6_4b0c_8b38_55f5ef301f40_Class51 ( obj_2cdd6e0a_e804_428a_a82c_1b158cc5114f o )  ) )):named c14))
(assert (! (exists ((o Int)) (and ( type_09da0f11_fce6_4b0c_8b38_55f5ef301f40_Class22 ( obj_2cdd6e0a_e804_428a_a82c_1b158cc5114f o )  )  ( type_09da0f11_fce6_4b0c_8b38_55f5ef301f40_Class39 ( obj_2cdd6e0a_e804_428a_a82c_1b158cc5114f o )  ) )):named c15))
(assert (! (exists ((o Int)) (and (and (and (and ( type_09da0f11_fce6_4b0c_8b38_55f5ef301f40_Class23 ( obj_2cdd6e0a_e804_428a_a82c_1b158cc5114f o )  )  ( type_09da0f11_fce6_4b0c_8b38_55f5ef301f40_Class25 ( obj_2cdd6e0a_e804_428a_a82c_1b158cc5114f o )  ) ) ( type_09da0f11_fce6_4b0c_8b38_55f5ef301f40_Class24 ( obj_2cdd6e0a_e804_428a_a82c_1b158cc5114f o )  ) ) ( type_09da0f11_fce6_4b0c_8b38_55f5ef301f40_Class39 ( obj_2cdd6e0a_e804_428a_a82c_1b158cc5114f o )  ) ) ( type_09da0f11_fce6_4b0c_8b38_55f5ef301f40_Class5 ( obj_2cdd6e0a_e804_428a_a82c_1b158cc5114f o )  ) )):named c16))
(assert (! (exists ((o Int)) (and (and ( type_09da0f11_fce6_4b0c_8b38_55f5ef301f40_Class24 ( obj_2cdd6e0a_e804_428a_a82c_1b158cc5114f o )  )  ( type_09da0f11_fce6_4b0c_8b38_55f5ef301f40_Class25 ( obj_2cdd6e0a_e804_428a_a82c_1b158cc5114f o )  ) ) ( type_09da0f11_fce6_4b0c_8b38_55f5ef301f40_Class39 ( obj_2cdd6e0a_e804_428a_a82c_1b158cc5114f o )  ) )):named c17))
(assert (! (exists ((o Int)) (and ( type_09da0f11_fce6_4b0c_8b38_55f5ef301f40_Class25 ( obj_2cdd6e0a_e804_428a_a82c_1b158cc5114f o )  )  ( type_09da0f11_fce6_4b0c_8b38_55f5ef301f40_Class39 ( obj_2cdd6e0a_e804_428a_a82c_1b158cc5114f o )  ) )):named c18))
(assert (! (exists ((o Int)) ( type_09da0f11_fce6_4b0c_8b38_55f5ef301f40_Class26 ( obj_2cdd6e0a_e804_428a_a82c_1b158cc5114f o )  ) ):named c19))
(assert (! (exists ((o Int)) ( type_09da0f11_fce6_4b0c_8b38_55f5ef301f40_Class27 ( obj_2cdd6e0a_e804_428a_a82c_1b158cc5114f o )  ) ):named c20))
(assert (! (exists ((o Int)) (and (and (and (and (and (and (and ( type_09da0f11_fce6_4b0c_8b38_55f5ef301f40_Class28 ( obj_2cdd6e0a_e804_428a_a82c_1b158cc5114f o )  )  ( type_09da0f11_fce6_4b0c_8b38_55f5ef301f40_Class45 ( obj_2cdd6e0a_e804_428a_a82c_1b158cc5114f o )  ) ) ( type_09da0f11_fce6_4b0c_8b38_55f5ef301f40_Class12 ( obj_2cdd6e0a_e804_428a_a82c_1b158cc5114f o )  ) ) ( type_09da0f11_fce6_4b0c_8b38_55f5ef301f40_Class33 ( obj_2cdd6e0a_e804_428a_a82c_1b158cc5114f o )  ) ) ( type_09da0f11_fce6_4b0c_8b38_55f5ef301f40_Class22 ( obj_2cdd6e0a_e804_428a_a82c_1b158cc5114f o )  ) ) ( type_09da0f11_fce6_4b0c_8b38_55f5ef301f40_Class29 ( obj_2cdd6e0a_e804_428a_a82c_1b158cc5114f o )  ) ) ( type_09da0f11_fce6_4b0c_8b38_55f5ef301f40_Class39 ( obj_2cdd6e0a_e804_428a_a82c_1b158cc5114f o )  ) ) ( type_09da0f11_fce6_4b0c_8b38_55f5ef301f40_Class41 ( obj_2cdd6e0a_e804_428a_a82c_1b158cc5114f o )  ) )):named c21))
(assert (! (exists ((o Int)) (and (and (and (and (and (and ( type_09da0f11_fce6_4b0c_8b38_55f5ef301f40_Class29 ( obj_2cdd6e0a_e804_428a_a82c_1b158cc5114f o )  )  ( type_09da0f11_fce6_4b0c_8b38_55f5ef301f40_Class45 ( obj_2cdd6e0a_e804_428a_a82c_1b158cc5114f o )  ) ) ( type_09da0f11_fce6_4b0c_8b38_55f5ef301f40_Class12 ( obj_2cdd6e0a_e804_428a_a82c_1b158cc5114f o )  ) ) ( type_09da0f11_fce6_4b0c_8b38_55f5ef301f40_Class33 ( obj_2cdd6e0a_e804_428a_a82c_1b158cc5114f o )  ) ) ( type_09da0f11_fce6_4b0c_8b38_55f5ef301f40_Class22 ( obj_2cdd6e0a_e804_428a_a82c_1b158cc5114f o )  ) ) ( type_09da0f11_fce6_4b0c_8b38_55f5ef301f40_Class39 ( obj_2cdd6e0a_e804_428a_a82c_1b158cc5114f o )  ) ) ( type_09da0f11_fce6_4b0c_8b38_55f5ef301f40_Class41 ( obj_2cdd6e0a_e804_428a_a82c_1b158cc5114f o )  ) )):named c22))
(assert (! (exists ((o Int)) (and (and (and ( type_09da0f11_fce6_4b0c_8b38_55f5ef301f40_Class3 ( obj_2cdd6e0a_e804_428a_a82c_1b158cc5114f o )  )  ( type_09da0f11_fce6_4b0c_8b38_55f5ef301f40_Class25 ( obj_2cdd6e0a_e804_428a_a82c_1b158cc5114f o )  ) ) ( type_09da0f11_fce6_4b0c_8b38_55f5ef301f40_Class24 ( obj_2cdd6e0a_e804_428a_a82c_1b158cc5114f o )  ) ) ( type_09da0f11_fce6_4b0c_8b38_55f5ef301f40_Class39 ( obj_2cdd6e0a_e804_428a_a82c_1b158cc5114f o )  ) )):named c23))
(assert (! (exists ((o Int)) (and ( type_09da0f11_fce6_4b0c_8b38_55f5ef301f40_Class30 ( obj_2cdd6e0a_e804_428a_a82c_1b158cc5114f o )  )  ( type_09da0f11_fce6_4b0c_8b38_55f5ef301f40_Class39 ( obj_2cdd6e0a_e804_428a_a82c_1b158cc5114f o )  ) )):named c24))
(assert (! (exists ((o Int)) (and (and (and (and (and ( type_09da0f11_fce6_4b0c_8b38_55f5ef301f40_Class31 ( obj_2cdd6e0a_e804_428a_a82c_1b158cc5114f o )  )  ( type_09da0f11_fce6_4b0c_8b38_55f5ef301f40_Class45 ( obj_2cdd6e0a_e804_428a_a82c_1b158cc5114f o )  ) ) ( type_09da0f11_fce6_4b0c_8b38_55f5ef301f40_Class12 ( obj_2cdd6e0a_e804_428a_a82c_1b158cc5114f o )  ) ) ( type_09da0f11_fce6_4b0c_8b38_55f5ef301f40_Class33 ( obj_2cdd6e0a_e804_428a_a82c_1b158cc5114f o )  ) ) ( type_09da0f11_fce6_4b0c_8b38_55f5ef301f40_Class22 ( obj_2cdd6e0a_e804_428a_a82c_1b158cc5114f o )  ) ) ( type_09da0f11_fce6_4b0c_8b38_55f5ef301f40_Class39 ( obj_2cdd6e0a_e804_428a_a82c_1b158cc5114f o )  ) )):named c25))
(assert (! (exists ((o Int)) ( type_09da0f11_fce6_4b0c_8b38_55f5ef301f40_Class32 ( obj_2cdd6e0a_e804_428a_a82c_1b158cc5114f o )  ) ):named c26))
(assert (! (exists ((o Int)) (and (and ( type_09da0f11_fce6_4b0c_8b38_55f5ef301f40_Class33 ( obj_2cdd6e0a_e804_428a_a82c_1b158cc5114f o )  )  ( type_09da0f11_fce6_4b0c_8b38_55f5ef301f40_Class22 ( obj_2cdd6e0a_e804_428a_a82c_1b158cc5114f o )  ) ) ( type_09da0f11_fce6_4b0c_8b38_55f5ef301f40_Class39 ( obj_2cdd6e0a_e804_428a_a82c_1b158cc5114f o )  ) )):named c27))
(assert (! (exists ((o Int)) (and (and (and ( type_09da0f11_fce6_4b0c_8b38_55f5ef301f40_Class34 ( obj_2cdd6e0a_e804_428a_a82c_1b158cc5114f o )  )  ( type_09da0f11_fce6_4b0c_8b38_55f5ef301f40_Class25 ( obj_2cdd6e0a_e804_428a_a82c_1b158cc5114f o )  ) ) ( type_09da0f11_fce6_4b0c_8b38_55f5ef301f40_Class24 ( obj_2cdd6e0a_e804_428a_a82c_1b158cc5114f o )  ) ) ( type_09da0f11_fce6_4b0c_8b38_55f5ef301f40_Class39 ( obj_2cdd6e0a_e804_428a_a82c_1b158cc5114f o )  ) )):named c28))
(assert (! (exists ((o Int)) (and (and ( type_09da0f11_fce6_4b0c_8b38_55f5ef301f40_Class35 ( obj_2cdd6e0a_e804_428a_a82c_1b158cc5114f o )  )  ( type_09da0f11_fce6_4b0c_8b38_55f5ef301f40_Class39 ( obj_2cdd6e0a_e804_428a_a82c_1b158cc5114f o )  ) ) ( type_09da0f11_fce6_4b0c_8b38_55f5ef301f40_Class30 ( obj_2cdd6e0a_e804_428a_a82c_1b158cc5114f o )  ) )):named c29))
(assert (! (exists ((o Int)) ( type_09da0f11_fce6_4b0c_8b38_55f5ef301f40_Class36 ( obj_2cdd6e0a_e804_428a_a82c_1b158cc5114f o )  ) ):named c30))
(assert (! (exists ((o Int)) ( type_09da0f11_fce6_4b0c_8b38_55f5ef301f40_Class37 ( obj_2cdd6e0a_e804_428a_a82c_1b158cc5114f o )  ) ):named c31))
(assert (! (exists ((o Int)) ( type_09da0f11_fce6_4b0c_8b38_55f5ef301f40_Class38 ( obj_2cdd6e0a_e804_428a_a82c_1b158cc5114f o )  ) ):named c32))
(assert (! (exists ((o Int)) ( type_09da0f11_fce6_4b0c_8b38_55f5ef301f40_Class39 ( obj_2cdd6e0a_e804_428a_a82c_1b158cc5114f o )  ) ):named c33))
(assert (! (exists ((o Int)) ( type_09da0f11_fce6_4b0c_8b38_55f5ef301f40_Class4 ( obj_2cdd6e0a_e804_428a_a82c_1b158cc5114f o )  ) ):named c34))
(assert (! (exists ((o Int)) (and (and (and (and (and (and (and (and (and ( type_09da0f11_fce6_4b0c_8b38_55f5ef301f40_Class40 ( obj_2cdd6e0a_e804_428a_a82c_1b158cc5114f o )  )  ( type_09da0f11_fce6_4b0c_8b38_55f5ef301f40_Class45 ( obj_2cdd6e0a_e804_428a_a82c_1b158cc5114f o )  ) ) ( type_09da0f11_fce6_4b0c_8b38_55f5ef301f40_Class12 ( obj_2cdd6e0a_e804_428a_a82c_1b158cc5114f o )  ) ) ( type_09da0f11_fce6_4b0c_8b38_55f5ef301f40_Class55 ( obj_2cdd6e0a_e804_428a_a82c_1b158cc5114f o )  ) ) ( type_09da0f11_fce6_4b0c_8b38_55f5ef301f40_Class33 ( obj_2cdd6e0a_e804_428a_a82c_1b158cc5114f o )  ) ) ( type_09da0f11_fce6_4b0c_8b38_55f5ef301f40_Class22 ( obj_2cdd6e0a_e804_428a_a82c_1b158cc5114f o )  ) ) ( type_09da0f11_fce6_4b0c_8b38_55f5ef301f40_Class29 ( obj_2cdd6e0a_e804_428a_a82c_1b158cc5114f o )  ) ) ( type_09da0f11_fce6_4b0c_8b38_55f5ef301f40_Class39 ( obj_2cdd6e0a_e804_428a_a82c_1b158cc5114f o )  ) ) ( type_09da0f11_fce6_4b0c_8b38_55f5ef301f40_Class50 ( obj_2cdd6e0a_e804_428a_a82c_1b158cc5114f o )  ) ) ( type_09da0f11_fce6_4b0c_8b38_55f5ef301f40_Class41 ( obj_2cdd6e0a_e804_428a_a82c_1b158cc5114f o )  ) )):named c35))
(assert (! (exists ((o Int)) (and (and (and (and (and ( type_09da0f11_fce6_4b0c_8b38_55f5ef301f40_Class41 ( obj_2cdd6e0a_e804_428a_a82c_1b158cc5114f o )  )  ( type_09da0f11_fce6_4b0c_8b38_55f5ef301f40_Class45 ( obj_2cdd6e0a_e804_428a_a82c_1b158cc5114f o )  ) ) ( type_09da0f11_fce6_4b0c_8b38_55f5ef301f40_Class12 ( obj_2cdd6e0a_e804_428a_a82c_1b158cc5114f o )  ) ) ( type_09da0f11_fce6_4b0c_8b38_55f5ef301f40_Class33 ( obj_2cdd6e0a_e804_428a_a82c_1b158cc5114f o )  ) ) ( type_09da0f11_fce6_4b0c_8b38_55f5ef301f40_Class22 ( obj_2cdd6e0a_e804_428a_a82c_1b158cc5114f o )  ) ) ( type_09da0f11_fce6_4b0c_8b38_55f5ef301f40_Class39 ( obj_2cdd6e0a_e804_428a_a82c_1b158cc5114f o )  ) )):named c36))
(assert (! (exists ((o Int)) (and ( type_09da0f11_fce6_4b0c_8b38_55f5ef301f40_Class42 ( obj_2cdd6e0a_e804_428a_a82c_1b158cc5114f o )  )  ( type_09da0f11_fce6_4b0c_8b38_55f5ef301f40_Class39 ( obj_2cdd6e0a_e804_428a_a82c_1b158cc5114f o )  ) )):named c37))
(assert (! (exists ((o Int)) ( type_09da0f11_fce6_4b0c_8b38_55f5ef301f40_Class43 ( obj_2cdd6e0a_e804_428a_a82c_1b158cc5114f o )  ) ):named c38))
(assert (! (exists ((o Int)) (and (and (and (and (and (and (and ( type_09da0f11_fce6_4b0c_8b38_55f5ef301f40_Class44 ( obj_2cdd6e0a_e804_428a_a82c_1b158cc5114f o )  )  ( type_09da0f11_fce6_4b0c_8b38_55f5ef301f40_Class45 ( obj_2cdd6e0a_e804_428a_a82c_1b158cc5114f o )  ) ) ( type_09da0f11_fce6_4b0c_8b38_55f5ef301f40_Class12 ( obj_2cdd6e0a_e804_428a_a82c_1b158cc5114f o )  ) ) ( type_09da0f11_fce6_4b0c_8b38_55f5ef301f40_Class33 ( obj_2cdd6e0a_e804_428a_a82c_1b158cc5114f o )  ) ) ( type_09da0f11_fce6_4b0c_8b38_55f5ef301f40_Class22 ( obj_2cdd6e0a_e804_428a_a82c_1b158cc5114f o )  ) ) ( type_09da0f11_fce6_4b0c_8b38_55f5ef301f40_Class29 ( obj_2cdd6e0a_e804_428a_a82c_1b158cc5114f o )  ) ) ( type_09da0f11_fce6_4b0c_8b38_55f5ef301f40_Class39 ( obj_2cdd6e0a_e804_428a_a82c_1b158cc5114f o )  ) ) ( type_09da0f11_fce6_4b0c_8b38_55f5ef301f40_Class41 ( obj_2cdd6e0a_e804_428a_a82c_1b158cc5114f o )  ) )):named c39))
(assert (! (exists ((o Int)) (and (and (and (and ( type_09da0f11_fce6_4b0c_8b38_55f5ef301f40_Class45 ( obj_2cdd6e0a_e804_428a_a82c_1b158cc5114f o )  )  ( type_09da0f11_fce6_4b0c_8b38_55f5ef301f40_Class12 ( obj_2cdd6e0a_e804_428a_a82c_1b158cc5114f o )  ) ) ( type_09da0f11_fce6_4b0c_8b38_55f5ef301f40_Class33 ( obj_2cdd6e0a_e804_428a_a82c_1b158cc5114f o )  ) ) ( type_09da0f11_fce6_4b0c_8b38_55f5ef301f40_Class22 ( obj_2cdd6e0a_e804_428a_a82c_1b158cc5114f o )  ) ) ( type_09da0f11_fce6_4b0c_8b38_55f5ef301f40_Class39 ( obj_2cdd6e0a_e804_428a_a82c_1b158cc5114f o )  ) )):named c40))
(assert (! (exists ((o Int)) (and (and ( type_09da0f11_fce6_4b0c_8b38_55f5ef301f40_Class46 ( obj_2cdd6e0a_e804_428a_a82c_1b158cc5114f o )  )  ( type_09da0f11_fce6_4b0c_8b38_55f5ef301f40_Class39 ( obj_2cdd6e0a_e804_428a_a82c_1b158cc5114f o )  ) ) ( type_09da0f11_fce6_4b0c_8b38_55f5ef301f40_Class5 ( obj_2cdd6e0a_e804_428a_a82c_1b158cc5114f o )  ) )):named c41))
(assert (! (exists ((o Int)) ( type_09da0f11_fce6_4b0c_8b38_55f5ef301f40_Class47 ( obj_2cdd6e0a_e804_428a_a82c_1b158cc5114f o )  ) ):named c42))
(assert (! (exists ((o Int)) (and (and (and (and (and (and (and (and (and ( type_09da0f11_fce6_4b0c_8b38_55f5ef301f40_Class48 ( obj_2cdd6e0a_e804_428a_a82c_1b158cc5114f o )  )  ( type_09da0f11_fce6_4b0c_8b38_55f5ef301f40_Class45 ( obj_2cdd6e0a_e804_428a_a82c_1b158cc5114f o )  ) ) ( type_09da0f11_fce6_4b0c_8b38_55f5ef301f40_Class12 ( obj_2cdd6e0a_e804_428a_a82c_1b158cc5114f o )  ) ) ( type_09da0f11_fce6_4b0c_8b38_55f5ef301f40_Class55 ( obj_2cdd6e0a_e804_428a_a82c_1b158cc5114f o )  ) ) ( type_09da0f11_fce6_4b0c_8b38_55f5ef301f40_Class33 ( obj_2cdd6e0a_e804_428a_a82c_1b158cc5114f o )  ) ) ( type_09da0f11_fce6_4b0c_8b38_55f5ef301f40_Class22 ( obj_2cdd6e0a_e804_428a_a82c_1b158cc5114f o )  ) ) ( type_09da0f11_fce6_4b0c_8b38_55f5ef301f40_Class29 ( obj_2cdd6e0a_e804_428a_a82c_1b158cc5114f o )  ) ) ( type_09da0f11_fce6_4b0c_8b38_55f5ef301f40_Class39 ( obj_2cdd6e0a_e804_428a_a82c_1b158cc5114f o )  ) ) ( type_09da0f11_fce6_4b0c_8b38_55f5ef301f40_Class50 ( obj_2cdd6e0a_e804_428a_a82c_1b158cc5114f o )  ) ) ( type_09da0f11_fce6_4b0c_8b38_55f5ef301f40_Class41 ( obj_2cdd6e0a_e804_428a_a82c_1b158cc5114f o )  ) )):named c43))
(assert (! (exists ((o Int)) (and (and (and (and (and (and (and (and (and ( type_09da0f11_fce6_4b0c_8b38_55f5ef301f40_Class49 ( obj_2cdd6e0a_e804_428a_a82c_1b158cc5114f o )  )  ( type_09da0f11_fce6_4b0c_8b38_55f5ef301f40_Class45 ( obj_2cdd6e0a_e804_428a_a82c_1b158cc5114f o )  ) ) ( type_09da0f11_fce6_4b0c_8b38_55f5ef301f40_Class12 ( obj_2cdd6e0a_e804_428a_a82c_1b158cc5114f o )  ) ) ( type_09da0f11_fce6_4b0c_8b38_55f5ef301f40_Class55 ( obj_2cdd6e0a_e804_428a_a82c_1b158cc5114f o )  ) ) ( type_09da0f11_fce6_4b0c_8b38_55f5ef301f40_Class33 ( obj_2cdd6e0a_e804_428a_a82c_1b158cc5114f o )  ) ) ( type_09da0f11_fce6_4b0c_8b38_55f5ef301f40_Class22 ( obj_2cdd6e0a_e804_428a_a82c_1b158cc5114f o )  ) ) ( type_09da0f11_fce6_4b0c_8b38_55f5ef301f40_Class29 ( obj_2cdd6e0a_e804_428a_a82c_1b158cc5114f o )  ) ) ( type_09da0f11_fce6_4b0c_8b38_55f5ef301f40_Class39 ( obj_2cdd6e0a_e804_428a_a82c_1b158cc5114f o )  ) ) ( type_09da0f11_fce6_4b0c_8b38_55f5ef301f40_Class50 ( obj_2cdd6e0a_e804_428a_a82c_1b158cc5114f o )  ) ) ( type_09da0f11_fce6_4b0c_8b38_55f5ef301f40_Class41 ( obj_2cdd6e0a_e804_428a_a82c_1b158cc5114f o )  ) )):named c44))
(assert (! (exists ((o Int)) (and ( type_09da0f11_fce6_4b0c_8b38_55f5ef301f40_Class5 ( obj_2cdd6e0a_e804_428a_a82c_1b158cc5114f o )  )  ( type_09da0f11_fce6_4b0c_8b38_55f5ef301f40_Class39 ( obj_2cdd6e0a_e804_428a_a82c_1b158cc5114f o )  ) )):named c45))
(assert (! (exists ((o Int)) (and (and (and (and (and (and (and (and ( type_09da0f11_fce6_4b0c_8b38_55f5ef301f40_Class50 ( obj_2cdd6e0a_e804_428a_a82c_1b158cc5114f o )  )  ( type_09da0f11_fce6_4b0c_8b38_55f5ef301f40_Class45 ( obj_2cdd6e0a_e804_428a_a82c_1b158cc5114f o )  ) ) ( type_09da0f11_fce6_4b0c_8b38_55f5ef301f40_Class12 ( obj_2cdd6e0a_e804_428a_a82c_1b158cc5114f o )  ) ) ( type_09da0f11_fce6_4b0c_8b38_55f5ef301f40_Class55 ( obj_2cdd6e0a_e804_428a_a82c_1b158cc5114f o )  ) ) ( type_09da0f11_fce6_4b0c_8b38_55f5ef301f40_Class33 ( obj_2cdd6e0a_e804_428a_a82c_1b158cc5114f o )  ) ) ( type_09da0f11_fce6_4b0c_8b38_55f5ef301f40_Class22 ( obj_2cdd6e0a_e804_428a_a82c_1b158cc5114f o )  ) ) ( type_09da0f11_fce6_4b0c_8b38_55f5ef301f40_Class29 ( obj_2cdd6e0a_e804_428a_a82c_1b158cc5114f o )  ) ) ( type_09da0f11_fce6_4b0c_8b38_55f5ef301f40_Class39 ( obj_2cdd6e0a_e804_428a_a82c_1b158cc5114f o )  ) ) ( type_09da0f11_fce6_4b0c_8b38_55f5ef301f40_Class41 ( obj_2cdd6e0a_e804_428a_a82c_1b158cc5114f o )  ) )):named c46))
(assert (! (exists ((o Int)) (and (and (and (and (and (and ( type_09da0f11_fce6_4b0c_8b38_55f5ef301f40_Class51 ( obj_2cdd6e0a_e804_428a_a82c_1b158cc5114f o )  )  ( type_09da0f11_fce6_4b0c_8b38_55f5ef301f40_Class45 ( obj_2cdd6e0a_e804_428a_a82c_1b158cc5114f o )  ) ) ( type_09da0f11_fce6_4b0c_8b38_55f5ef301f40_Class12 ( obj_2cdd6e0a_e804_428a_a82c_1b158cc5114f o )  ) ) ( type_09da0f11_fce6_4b0c_8b38_55f5ef301f40_Class33 ( obj_2cdd6e0a_e804_428a_a82c_1b158cc5114f o )  ) ) ( type_09da0f11_fce6_4b0c_8b38_55f5ef301f40_Class22 ( obj_2cdd6e0a_e804_428a_a82c_1b158cc5114f o )  ) ) ( type_09da0f11_fce6_4b0c_8b38_55f5ef301f40_Class16 ( obj_2cdd6e0a_e804_428a_a82c_1b158cc5114f o )  ) ) ( type_09da0f11_fce6_4b0c_8b38_55f5ef301f40_Class39 ( obj_2cdd6e0a_e804_428a_a82c_1b158cc5114f o )  ) )):named c47))
(assert (! (exists ((o Int)) (and (and (and (and (and ( type_09da0f11_fce6_4b0c_8b38_55f5ef301f40_Class52 ( obj_2cdd6e0a_e804_428a_a82c_1b158cc5114f o )  )  ( type_09da0f11_fce6_4b0c_8b38_55f5ef301f40_Class45 ( obj_2cdd6e0a_e804_428a_a82c_1b158cc5114f o )  ) ) ( type_09da0f11_fce6_4b0c_8b38_55f5ef301f40_Class12 ( obj_2cdd6e0a_e804_428a_a82c_1b158cc5114f o )  ) ) ( type_09da0f11_fce6_4b0c_8b38_55f5ef301f40_Class33 ( obj_2cdd6e0a_e804_428a_a82c_1b158cc5114f o )  ) ) ( type_09da0f11_fce6_4b0c_8b38_55f5ef301f40_Class22 ( obj_2cdd6e0a_e804_428a_a82c_1b158cc5114f o )  ) ) ( type_09da0f11_fce6_4b0c_8b38_55f5ef301f40_Class39 ( obj_2cdd6e0a_e804_428a_a82c_1b158cc5114f o )  ) )):named c48))
(assert (! (exists ((o Int)) ( type_09da0f11_fce6_4b0c_8b38_55f5ef301f40_Class53 ( obj_2cdd6e0a_e804_428a_a82c_1b158cc5114f o )  ) ):named c49))
(assert (! (exists ((o Int)) ( type_09da0f11_fce6_4b0c_8b38_55f5ef301f40_Class54 ( obj_2cdd6e0a_e804_428a_a82c_1b158cc5114f o )  ) ):named c50))
(assert (! (exists ((o Int)) (and (and (and (and (and (and (and ( type_09da0f11_fce6_4b0c_8b38_55f5ef301f40_Class55 ( obj_2cdd6e0a_e804_428a_a82c_1b158cc5114f o )  )  ( type_09da0f11_fce6_4b0c_8b38_55f5ef301f40_Class45 ( obj_2cdd6e0a_e804_428a_a82c_1b158cc5114f o )  ) ) ( type_09da0f11_fce6_4b0c_8b38_55f5ef301f40_Class12 ( obj_2cdd6e0a_e804_428a_a82c_1b158cc5114f o )  ) ) ( type_09da0f11_fce6_4b0c_8b38_55f5ef301f40_Class33 ( obj_2cdd6e0a_e804_428a_a82c_1b158cc5114f o )  ) ) ( type_09da0f11_fce6_4b0c_8b38_55f5ef301f40_Class22 ( obj_2cdd6e0a_e804_428a_a82c_1b158cc5114f o )  ) ) ( type_09da0f11_fce6_4b0c_8b38_55f5ef301f40_Class29 ( obj_2cdd6e0a_e804_428a_a82c_1b158cc5114f o )  ) ) ( type_09da0f11_fce6_4b0c_8b38_55f5ef301f40_Class39 ( obj_2cdd6e0a_e804_428a_a82c_1b158cc5114f o )  ) ) ( type_09da0f11_fce6_4b0c_8b38_55f5ef301f40_Class41 ( obj_2cdd6e0a_e804_428a_a82c_1b158cc5114f o )  ) )):named c51))
(assert (! (exists ((o Int)) ( type_09da0f11_fce6_4b0c_8b38_55f5ef301f40_Class6 ( obj_2cdd6e0a_e804_428a_a82c_1b158cc5114f o )  ) ):named c52))
(assert (! (exists ((o Int)) (and (and (and (and (and (and (and (and (and ( type_09da0f11_fce6_4b0c_8b38_55f5ef301f40_Class7 ( obj_2cdd6e0a_e804_428a_a82c_1b158cc5114f o )  )  ( type_09da0f11_fce6_4b0c_8b38_55f5ef301f40_Class45 ( obj_2cdd6e0a_e804_428a_a82c_1b158cc5114f o )  ) ) ( type_09da0f11_fce6_4b0c_8b38_55f5ef301f40_Class12 ( obj_2cdd6e0a_e804_428a_a82c_1b158cc5114f o )  ) ) ( type_09da0f11_fce6_4b0c_8b38_55f5ef301f40_Class55 ( obj_2cdd6e0a_e804_428a_a82c_1b158cc5114f o )  ) ) ( type_09da0f11_fce6_4b0c_8b38_55f5ef301f40_Class33 ( obj_2cdd6e0a_e804_428a_a82c_1b158cc5114f o )  ) ) ( type_09da0f11_fce6_4b0c_8b38_55f5ef301f40_Class22 ( obj_2cdd6e0a_e804_428a_a82c_1b158cc5114f o )  ) ) ( type_09da0f11_fce6_4b0c_8b38_55f5ef301f40_Class29 ( obj_2cdd6e0a_e804_428a_a82c_1b158cc5114f o )  ) ) ( type_09da0f11_fce6_4b0c_8b38_55f5ef301f40_Class39 ( obj_2cdd6e0a_e804_428a_a82c_1b158cc5114f o )  ) ) ( type_09da0f11_fce6_4b0c_8b38_55f5ef301f40_Class50 ( obj_2cdd6e0a_e804_428a_a82c_1b158cc5114f o )  ) ) ( type_09da0f11_fce6_4b0c_8b38_55f5ef301f40_Class41 ( obj_2cdd6e0a_e804_428a_a82c_1b158cc5114f o )  ) )):named c53))
(assert (! (exists ((o Int)) (and ( type_09da0f11_fce6_4b0c_8b38_55f5ef301f40_Class8 ( obj_2cdd6e0a_e804_428a_a82c_1b158cc5114f o )  )  ( type_09da0f11_fce6_4b0c_8b38_55f5ef301f40_Class39 ( obj_2cdd6e0a_e804_428a_a82c_1b158cc5114f o )  ) )):named c54))
(assert (! (exists ((o Int)) ( type_09da0f11_fce6_4b0c_8b38_55f5ef301f40_Class9 ( obj_2cdd6e0a_e804_428a_a82c_1b158cc5114f o )  ) ):named c55))

 ;end of formula 